10
0 22 111 18 14 115 110 17 136 52 
1 0 120 157 199 104 25 9 45 10 
190 103 0 86 94 144 124 188 115 104 
49 1 59 0 181 197 199 82 190 199 
10 158 73 23 0 93 39 180 191 58 
159 192 16 89 157 0 3 35 73 56 
129 47 163 87 76 34 0 143 45 17 
82 199 123 52 22 100 158 0 93 190 
76 113 1 111 4 70 62 89 0 190 
56 24 3 186 183 86 89 27 18 0 
